============================[ Problem Statistics ]=============================|                                                                             ||  Number of variables:          4242                                         ||  Number of clauses:           10309                                         ||  Parse time:                   0.70 s                                       ||                                                                             |============================[ Search Statistics ]==============================| Conflicts |          ORIGINAL         |          LEARNT          | Progress ||           |    Vars  Clauses Literals |    Limit  Clauses Lit/Cl |          |===============================================================================|       100 |    1591     6514  1111175 |     2388      100     53 | 62.501 % ||       250 |    1591     6514  1111175 |     2627      250     75 | 62.495 % |===============================================================================restarts              : 3conflicts             : 379            (361 /sec)decisions             : 645            (0.00 % random) (614 /sec)propagations          : 12014          (11442 /sec)conflict literals     : 31191          (94.58 % deleted)CPU time              : 1.05 sSATISFIABLE